7758
1 1 0 1 0 1 1 0 1 0 0 1 1 1 1 1 1 1 0 1 
12 14 3 14 15 19 16 3 16 1 11 8 6 14 19 15 0 13 14 14 5 11 5 8 8 8 11 16 17 13 1 19 6 8 14 19 6 15 0 1 1 3 3 16 11 14 8 19 15 15 16 17 1 13 13 5 16 14 14 14 3 3 3 3 11 3 0 15 19 6 19 8 19 19 19 19 19 19 19 19 